[ T i t l e ]
input file for lecture about source

[ P a r a m e t e r s ]
 icntl    =           0     # (D=0) 3:ECH 5:NOR 6:SRC 7,8:GSH 11:DSH 12:DUMP
 maxcas   =        20000     # (D=10) number of particles per one batch
 maxbch   =            5     # (D=10) number of batches
 file(6)  = phits.out       # (D=phits.out) general output file name
 negs     =           1     # (D=-1) =-1:original, =0:No, =1:EGS, =2:EGS(HE)
 e-mode   =           2     # (D=0) 0: Normal, 1: Event generator mode Ver.1, 2: Ver.2
 iscinful =           1     # (D=0) SCINFUL mode. 0:off, 1:on

[Data Max] $ This section is mandatory for SCINFUL mode
part = neutron
 mat  nucleus   dmax
   1        C    0.10   $ threshold energy of inelastic reaction, fixed for SCINFUL mode

[ S o u r c e ]
  totfact =   1.0           # (D=1.0) global factor
 <source> = 1.0
   s-type =   1             # axial source with energy spectrum
     proj =  neutron        # kind of incident particle         
       r0 =   0.0           # radius [cm]
       z0 =   0.0           # minimum position of z-axis [cm]
       z1 =   0.0           # maximum position of z-axis [cm]
      dir =   1.0           # z-direction of beam [cosine]
       e0 =  20.0           # energy of beam [MeV/n]

[ M a t e r i a l ]
mat[1]    C 1.0  H 1.213

[ S u r f a c e ]
set:c1[5.08] $ thickness & diameter of detector
   1  cz      c1/2.0
  13  pz      1.0
  14  pz      1.0+c1
  99  so     500.

[ C e l l ]
   1     1 -0.874   -1   13  -14  $ Detector 1
 100     0         -99   #1       $ void
 101    -1          99            $ outer region

[ T - T r a c k ]
    title = Track Detection in xyz mesh
     mesh =  xyz            # mesh type is xyz scoring mesh
   x-type =    2            # x-mesh is linear given by xmin, xmax and nx
       nx =  100            # number of x-mesh points
     xmin =  -5.           # minimum value of x-mesh points
     xmax =   5.           # maximum value of x-mesh points
   y-type =    1            # y-mesh is given by the below data
       ny =    1            # number of y-mesh points
           -5.0  5.0
   z-type =    2            # z-mesh is linear given by zmin, zmax and nz
       nz =  100            # number of z-mesh points
     zmin =  -10.           # minimum value of z-mesh points
     zmax =   10.           # maximum value of z-mesh points
   e-type =    1            # e-mesh is given by the below data
       ne =    1            # number of e-mesh points
            0.0  5000.0
     unit =    1            # unit is [1/cm^2/source]
     axis =   xz            # axis of output
     file = track_xz.out    # file name of output for the above axis
     part =  all
    gshow =    3            # 0: no 1:bnd, 2:bnd+mat, 3:bnd+reg 4:bnd+lat
   epsout =    1            # (D=0) generate eps file by ANGEL

[ T - Deposit ]
    title = Energy deposition in reg mesh
     mesh =  reg            # mesh type is region-wise
      reg =  1
     unit =    3            # unit is [MeV/cm^3/source]
   output =  deposit        # total deposit energy
     axis =   eng           # axis of output
  e-type = 2
$     ne = 210
$   emin = 0.0
$   emax = 21.0
     ne = 1
   emin = 1.0
   emax = 1.0e8
  dresol = 0.01             # (D=0) width = sqrt(dresol**2 + dfano*E)
  dfano = 0.001             # (D=0) width = sqrt(dresol**2 + dfano*E)
     file = deposit_n.out     # file name of output for the above axis
     part =  all proton deuteron alpha c
   epsout =    1            # (D=0) generate eps file by ANGEL

[ E n d ]
