$OMP=0
[ T i t l e ]
Sample input file for generating GCR fluxes on ground

[ P a r a m e t e r s ]
 icntl    =           0     # (D=0) 3:ECH 5:NOR 6:SRC 7,8:GSH 11:DSH 12:DUMP
 maxcas   =        2000     # (D=10) number of particles per one batch
 maxbch   =           2     # (D=10) number of batches
 e-mode   =           2     # (D=0) 0: Normal, 1: Event generator mode Ver.1, 2: Ver.2
 negs     =           2     # (D=-1) =-1:original, =0:No, =1:EGS
 mdbatima =        3000     # (D=500) max database size of ATIMA
 maxbnk   =      100000     # (D=10000) maximum bank memory length
 iMeVperU =           1     # (D=0) 0:[MeV] or 1:[MeV/u] is unit of tally output
 emin(12) =  1.00000000     # (D=1.e+9) cut-off energy of electron (MeV)
 emin(13) =  1.00000000     # (D=1.e+9) cut-off energy of positron (MeV)
 esmax    =  100000000.     # (D=1.0e6) max energy/u for charged particle range

set:c11[-cos(0/180*pi)]   $ above 0 degree (downward)
set:c12[-cos(90/180*pi)]  $ below 90 degree (horizontal)

[ S o u r c e ]
set:c1[500.0]  $ Source radius
set:c2[500.0]  $ thickness of soil
set:c3[100.0]  $ thickness of air
set:c4[300.0]  $ half of detector size

  totfact =  pi*c1**2       # (D=1.0) global factor
 infl:{muon-source.inp}
     proj =  muon+   # kind of incident nucleus 
 infl:{muon-source.inp}
     proj =  muon-   # kind of incident nucleus 

[ M a t e r i a l ]
m1 $ Ground with 20 percent water, 2.7g/cm3
  O  -0.592
  Si -0.28
  Al -0.106
  H  -0.022

m2 $ Air. 0.0012 g/cm^3
 O  0.232 
 N  0.755
 Ar 0.13

m3 $ Gold, 19.32 g/cm3
  Au  1.0

[ Surface ]
  1  pz  -c2-0.01   $ depth under ground
  2  pz   0         $ ground surface
  3  pz   c3+0.01   $ air above ground
 11  sz   -250 200  $ object
*21  cz   c1+0.01   $ reflection surface
 99  so   10000.0   $ outer boundary

[ Cell ]
  1  1  -2.7      -21 1 -2 11 $ soil
  2  2  -1.21e-3  -21 2 -3    $ air
  3  1  -2.7      -11         $ object
 99  -1 -99  #all

[ T - T r a c k ]
    title = Cosmic-ray flux
     mesh =  xyz            # mesh type is xyz scoring mesh
   x-type =    2            # In the case of rotating figure, x & z data should be replaced by each other
     xmin =  -c2            # minimum value of x-mesh points
     xmax =   c3            # maximum value of x-mesh points
       nx =   100           # number of x-mesh points
   y-type =    2            # y-mesh is linear given by ymin, ymax and ny
     ymin =  -c1/4          # minimum value of y-mesh points
     ymax =   c1/4          # maximum value of y-mesh points
       ny =    1            # number of y-mesh points
   z-type =    2            # In the case of rotating figure, x & z data should be replaced by each other
     zmin =  -c1*1.1            # minimum value of z-mesh points
     zmax =   c1*1.1            # maximum value of z-mesh points
       nz =   100           # number of z-mesh points
  2D-type =    3            # 1:Cont, 2:Clust, 3:Color, 4:xyz, 5:mat, 6:Clust+Cont, 7:Col+Cont
     axis =   xz            # axis of output
     file = track_xz.out       # file name of output for the above axis
     part = (muon+ muon-)
   e-type =    1            # e-mesh is given by the below data
       ne =    1            # number of e-mesh points
             0.0  1e10
     unit =    1            # unit is [1/cm^2/source]
   epsout =    1            # (D=0) generate eps file by ANGEL   
    gshow =    3            # 0: no 1:bnd, 2:bnd+mat, 3:bnd+reg 4:bnd+lat
    z-txt = Flux [/cm2/sec]
$ Rotating figure by 90 degree
     trcl = 0 0 0 0 0 1 0 1 0 1 0 0
    x-txt = x [cm]
    y-txt = z [cm]

[ T - C r o s s ]
    title = Crossing particles in xyz mesh
     mesh =  xyz            # mesh type is xyz scoring mesh
   x-type =    2            # x-mesh is linear given by xmin, xmax and nx
     xmin =  -c4      # minimum value of x-mesh points
     xmax =   c4      # maximum value of x-mesh points
       nx =    5            # number of x-mesh points
   y-type =    2            # y-mesh is linear given by ymin, ymax and ny
     ymin =  -c4      # minimum value of y-mesh points
     ymax =   c4      # maximum value of y-mesh points
       ny =    5            # number of y-mesh points
   z-type =    1            # z-mesh is linear given by zmin, zmax and nz
       nz =   1            # number of z-mesh points
    -c2  0.01
   e-type =    2            # e-mesh is log given by emin, emax and ne
     emin =   0.000000      # minimum value of e-mesh points
     emax =   1e10     # maximum value of e-mesh points
       ne =   1             # number of e-mesh points
     unit =    1            # unit is [1/cm^2/MeV/source]
     axis =  xy            # axis of output
     file = cross_xy.out   # file name of output for the above axis
   output = current        # surface crossing flux
     part =  (muon+ muon-)
   epsout =    1            # (D=0) generate eps file by ANGEL

[END]

