[ T i t l e ]
Sample input for dose calculation for photon therapy

[ P a r a m e t e r s ]
 icntl    =           0     # (D=0) 3:ECH 5:NOR 6:SRC 7,8:GSH 11:DSH 12:DUMP
 maxcas   =       10000     # (D=10) number of particles per one batch
 maxbch   =          10     # (D=10) number of batches
 ipnint   =           1     # (D=0) 0: no, 1: consider photo-nuclear reaction
 negs     =           1     # (D=0) =1 EGS photon and electron
 file(1)  = c:/phits        # (D=c:/phits) PHITS install folder name
 pnimul   =       5000

[ S o u r c e ]
   s-type =   1             # mono-energetic axial source
     proj =  electron       # kind of incident nucleus          
       e0 =   20.000        # energy of beam [MeV/u]
       r0 =   0.1000        # radius [cm]
       x0 =   0.0000        # (D=0.0) center position of x-axis [cm]
       y0 =   0.0000        # (D=0.0) center position of y-axis [cm]
       z0 =  -20.000        # minimum position of z-axis [cm]
       z1 =  -20.000        # maximum position of z-axis [cm]
      dir =   1.0000        # z-direction of beam [cosine]

[ M a t e r i a l ]
MAT[ 1 ]   # ICRU soft tissue
            H         6.0820000E-02
            C         5.5700000E-03
            N         1.1180000E-03
            O         2.8680000E-02

MAT[ 2 ]   # X-ray generator 
            W         1.0

MAT[ 3 ]   # X-ray collimator
           Pb         1.0

$   Concrete   2.302 g/cm^3, taken from ANL-5800 Type 02-a
$   Note: 2.302 g/cm^3 is US standard. There is no Japanese standard value,
$   but 2.1 g/cm^3 is usually used for shielding calculation
MAT[ 4 ] H     -0.023       
         C     -0.0023
         O     -1.22
         Na    -0.0368
         Mg    -0.005
         Al    -0.078
         Si    -0.775
         K     -0.0299
         Ca    -0.1
         Fe    -0.032

[ C e l l ]
 1          2 -17.6 1 -2 -11    $ X-ray generator
 2          1 -1.0  3 -4 -12    $ Phantom
 3          3 -11.3 5 -6 -14 13 $ X-ray collimator
 4          4 -2.1  -21 20 -30    $ Shielding
 5          4 -2.1  -21 20 -31 30 $ Shielding
 6          4 -2.1  -21 20 -32 31 $ Shielding
 7          4 -2.1  -21 20 -33 32 $ Shielding
 8          4 -2.1  -21 20 -34 33 $ Shielding
 9          4 -2.1  -21 20 -35 34 $ Shielding
10          4 -2.1  -21 20 -36 35 $ Shielding
11          4 -2.1  -21 20 -37 36 $ Shielding
12          4 -2.1  -21 20 -38 37 $ Shielding
13          4 -2.1  -21 20     38 $ Shielding
98          0      #1 #2 #3 #4 #5 #6 #7 #8 #9 #10 #11 #12 #13 -999   $ Void
99         -1             999   $ Outer region

[ S u r f a c e ]
 1            pz     0.0
 2            pz     1.0
 3            pz     5.0
 4            pz    15.0
 5            pz     2.0
 6            pz     4.0
 11           cz     1.0
 12           cz     5.0
 13           cz     0.7
 14           cz     6.0
 20           RPP   -20   20    -20   20   -20   60
 21           RPP  -120  120   -120  120   -30  160
 30           pz    70.0
 31           pz    80.0
 32           pz    90.0
 33           pz   100.0
 34           pz   110.0
 35           pz   120.0
 36           pz   130.0
 37           pz   140.0
 38           pz   150.0
 999          so   10000.0


[ I m p o r t a n c e ]
  set: c1[1.4]
  part  = photon neutron
  reg    imp 
  4       c1**0
  5       c1**1
  6       c1**2
  7       c1**3
  8       c1**4
  9       c1**5
  10      c1**6
  11      c1**7
  12      c1**8
  13      c1**10

[ T - D e p o s i t ]
    title = Deposit in xyz mesh
     mesh =  xyz            # mesh type is xyz scoring mesh
   x-type =    2            # x-mesh is linear given by xmin, xmax and nx
     xmin =-120.000000      # minimum value of x-mesh points
     xmax = 120.000000      # maximum value of x-mesh points
       nx =   50            # number of x-mesh points
   y-type =    2            # y-mesh is linear given by ymin, ymax and ny
     ymin =-120.000000      # minimum value of y-mesh points
     ymax = 120.000000      # maximum value of y-mesh points
       ny =    1            # number of y-mesh points
   z-type =    2            # z-mesh is linear given by zmin, zmax and nz
     zmin =   -2.00000*8    # minimum value of z-mesh points
     zmax =   22.00000*8    # maximum value of z-mesh points
       nz =   120           # number of z-mesh points
     unit =    0            # unit is [Gy/source]
  2D-type =    3            # 1:Cont, 2:Clust, 3:Color, 4:xyz, 5:mat, 6:Clust+Cont, 7:Col+Cont
     axis =   xz            # axis of output
     file = deposit.out     # file name of output for the above axis
 material =  all            # (D=all) number of specific material
   output = dose            # only heat is written
   epsout =    1            # (D=0) generate eps file by ANGEL
    gshow =    1            # 0: no 1:bnd, 2:bnd+mat, 3:bnd+reg 4:bnd+lat

[ T - T r a c k ]
    title = Track in xyz mesh
     mesh =  xyz            # mesh type is xyz scoring mesh
   x-type =    2            # x-mesh is linear given by xmin, xmax and nx
     xmin =-120.000000      # minimum value of x-mesh points
     xmax = 120.000000      # maximum value of x-mesh points
       nx =   50            # number of x-mesh points
   y-type =    2            # y-mesh is linear given by ymin, ymax and ny
     ymin =-120.000000      # minimum value of y-mesh points
     ymax = 120.000000      # maximum value of y-mesh points
       ny =    1            # number of y-mesh points
   z-type =    2            # z-mesh is linear given by zmin, zmax and nz
     zmin =   -2.00000*8    # minimum value of z-mesh points
     zmax =  160.00000      # maximum value of z-mesh points
       nz =   90            # number of z-mesh points
  2D-type =    3            # 1:Cont, 2:Clust, 3:Color, 4:xyz, 5:mat, 6:Clust+Cont, 7:Col+Cont
     axis =   xz            # axis of output
     file = track.out       # file name of output for the above axis
     part = electron photon neutron
   e-type =    1            # e-mesh is given by the below data
       ne =    1            # number of e-mesh points
             0.0  1000.0
     unit =    1            # unit is [1/cm^2/source]
   epsout =    1            # (D=0) generate eps file by ANGEL   
    gshow =    1            # 0: no 1:bnd, 2:bnd+mat, 3:bnd+reg 4:bnd+lat

[ T - T r a c k ] 
    title = Effective dose (uSv/h)
     part =   neutron    photon
     mesh =  xyz            # mesh type is xyz scoring mesh
   x-type =    2            # x-mesh is linear given by xmin, xmax and nx
     xmin =-120.000000      # minimum value of x-mesh points
     xmax = 120.000000      # maximum value of x-mesh points
       nx =   50            # number of x-mesh points
   y-type =    2            # y-mesh is linear given by ymin, ymax and ny
     ymin =-120.000000      # minimum value of y-mesh points
     ymax = 120.000000      # maximum value of y-mesh points
       ny =    1            # number of y-mesh points
   z-type =    2            # z-mesh is linear given by zmin, zmax and nz
     zmin =   -2.00000*8    # minimum value of z-mesh points
     zmax =  160.00000      # maximum value of z-mesh points
       nz =   90            # number of z-mesh points
   e-type =    1            # e-mesh is given by the below data
       ne =    1            # number of e-mesh points
            1.00000E-10  1.00000E+03
     unit =    1            # unit is [1/cm^2/source]
 material =  all            # (D=all) number of specific material
     axis =   xz            # axis of output
     file =  dose.out     # file name of output for the above axis
   epsout =    1            # (D=0) generate eps file by ANGEL
    z-txt = Effective dose [uSv/h]
  2D-type =    3            # 1:Cont, 2:Clust, 3:Color, 4:xyz, 5:mat, 6:Clust+Cont, 7:Col+Cont
    gshow =    1            # 0: no 1:bnd, 2:bnd+mat, 3:bnd+reg 4:bnd+lat
   factor = 1e-6*3600       # [pSv/sec] -> [uSv/h]
  multiplier = all          # number of material group
      mat      mset1
      all ( 1.0 -203 )

[ T - T r a c k ] 
    title = Effective dose (uSv/h) depth profile
     part =   neutron    photon  
     mesh =  xyz            # mesh type is xyz scoring mesh
   x-type =    2            # x-mesh is linear given by xmin, xmax and nx
     xmin =-120.000000      # minimum value of x-mesh points
     xmax = 120.000000      # maximum value of x-mesh points
       nx =    1            # number of x-mesh points
   y-type =    2            # y-mesh is linear given by ymin, ymax and ny
     ymin =-120.000000      # minimum value of y-mesh points
     ymax = 120.000000      # maximum value of y-mesh points
       ny =    1            # number of y-mesh points
   z-type =    2            # z-mesh is linear given by zmin, zmax and nz
     zmin =   60.00000      # minimum value of z-mesh points
     zmax =  160.00000      # maximum value of z-mesh points
       nz =   12            # number of z-mesh points
   e-type =    1            # e-mesh is given by the below data
       ne =    1            # number of e-mesh points
            1.00000E-10  1.00000E+03
     unit =    1            # unit is [1/cm^2/source]
 material =  all            # (D=all) number of specific material
     axis =   z             # axis of output
     file =  dose-depth.out # file name of output for the above axis
   epsout =    1            # (D=0) generate eps file by ANGEL
    z-txt = Effective dose [uSv/h]
  2D-type =    3            # 1:Cont, 2:Clust, 3:Color, 4:xyz, 5:mat, 6:Clust+Cont, 7:Col+Cont
    gshow =    1            # 0: no 1:bnd, 2:bnd+mat, 3:bnd+reg 4:bnd+lat
   factor = 1e-6*3600       # [pSv/sec] -> [uSv/h]
  multiplier = all          # number of material group
      mat      mset1
      all ( 1.0 -203 )

[END]

