
$[ S u r f a c e ]

$ Caja exterior de acrilico
3000 90 rpp -14.9385 -1.4685  -2.609 2.621  58.08 63.0
    
$ Hueco interior
3100 90 rpp -14.6885 -1.7185  -2.359 2.371  58.08 62.75

$ Hueco hacia trampolin
3200 90 rpp -1.7185 -1.4685  -1.486 1.486  58.08 61.01

$ Trampolin / soporte del pouch
3300 90 rpp -1.4685 2.7185  -1.486 1.486  60.58 61.01 $ 0.23 el trampolin solidario al posicionador + 0.2 del trampolin solidario al pouch

$ Pared izq (hacia y positivo)
3400 90 rpp -1.4685 2.7185  1.486 1.586  59.58 61.01

$ Pared der
3500 90 rpp -1.4685 2.7185  -1.586 -1.486  59.58 61.01

$ Pared frontal
3600 90 rpp 2.7185 2.8185  -1.586 1.586  59.58 61.01