$[ S u r f a c e ]

$ Caja exterior de acrilico
3000 90 rpp -14.9385 -1.4685  -2.609 2.621  58.08 63.0
    
$ Hueco interior
3100 90 rpp -14.6885 -1.7185  -2.359 2.371  58.08 62.75

$ Hueco hacia trampolin
3200 90 rpp -1.7185 -1.4685  -1.486 1.486  60.18 61.01

$ Trampolin / soporte del pouch
$3300 90 rpp -1.4685 2.7185  -1.486 1.486  60.58 61.01 $ 0.23 el trampolin solidario al posicionador + 0.2 del trampolin solidario al pouch
$ acorto el trampolin para que sea igual al real
3300 90 rpp -1.4685 1.5095  -1.486 1.486  60.58 61.01 

$ Pared izq (hacia y positivo)
3400 90 rpp -1.4685 1.5095  1.486 1.586  60.58 61.01    $ bajo las paredes al raz del trampolin 

$ Pared der 
3500 90 rpp -1.4685 1.5095  -1.586 -1.486  60.58 61.01

$ Pared frontal
3600 90 rpp 1.5095 1.8095  -1.586 1.586  60.58 61.01

$Nivel al raz del pouch izq
3910 90 rpp -1.4685 1.5095  0.886 1.586  60.38 60.58    $ bajo las paredes al raz del POUCH 

$Nivel al raz del pouch der
$3920 90 rpp -1.4685 1.5095  -1.586 -0.886  60.38 60.58

$-------------BLINDAJE-------------------------------
$ Tapa: superficie superior
3700 90 rpp -14.9385 -1.4685  -2.609 2.621  57.58 58.08

$------------guillotina----------------------------

3800 90 rpp -1.7185 -1.4685  -1.486 1.486  58.08 60.38  $ le dejo 2 mm de aire

$------------nivel para poner gel--------------------------------

$ pared izq
$9000 90 rpp -1.4685 1.5095  1.286 1.586  60.33 60.38 

$pared der
$9001 90 rpp -1.4685 1.5095 -1.586 -1.286 60.33 60.38 

$pared frontal
$9002 90 rpp 1.5095 1.8095  -1.586 1.586  60.33 60.58
