$  Cell of Ridge Filter
$  unit ridge filter, Gap Region
 1100 4 -1.21E-03  200 -201 102 -103 -105  u=1001 
$  unit ridge filete, Air Regions
 1101 4 -1.21E-03  201 -202 102 -103 -301  u=1001 
 1102 4 -1.21E-03  202 -203 102 -103 -302  u=1001 
 1103 4 -1.21E-03  203 -204 102 -103 -303  u=1001 
 1104 4 -1.21E-03  204 -205 102 -103 -304  u=1001 
 1105 4 -1.21E-03  205 -206 102 -103 -305  u=1001 
 1106 4 -1.21E-03  206 -207 102 -103 -306  u=1001 
 1107 4 -1.21E-03  207 -208 102 -103 -307  u=1001 
 1108 4 -1.21E-03  208 -209 102 -103 -306  u=1001 
 1109 4 -1.21E-03  209 -210 102 -103 -305  u=1001 
 1110 4 -1.21E-03  210 -211 102 -103 -304  u=1001 
 1111 4 -1.21E-03  211 -212 102 -103 -303  u=1001 
 1112 4 -1.21E-03  212 -213 102 -103 -302  u=1001 
 1113 4 -1.21E-03  213 -214 102 -103 -301  u=1001 
c Unit Ridge Filger, Al region
 1201 2 -2.70      201 -202 102 -103  301  u=1001
 1202 2 -2.70      202 -203 102 -103  302  u=1001
 1203 2 -2.70      203 -204 102 -103  303  u=1001
 1204 2 -2.70      204 -205 102 -103  304  u=1001
 1205 2 -2.70      205 -206 102 -103  305  u=1001
 1206 2 -2.70      206 -207 102 -103  306  u=1001
 1207 2 -2.70      207 -208 102 -103  307  u=1001
 1208 2 -2.70      208 -209 102 -103  306  u=1001
 1209 2 -2.70      209 -210 102 -103  305  u=1001
 1210 2 -2.70      210 -211 102 -103  304  u=1001
 1211 2 -2.70      211 -212 102 -103  303  u=1001
 1212 2 -2.70      212 -213 102 -103  302  u=1001
 1213 2 -2.70      213 -214 102 -103  301  u=1001

 2001 0 -214 200 -103 102 -105 104  lat=1  u=1002
      fill= -5:4 0:0 0:0 
      1001 1001 1001 1001 1001 1001 1001 1001 1001 1001

2003  0  100 -101 102 -103 -106 104 lat=1 u=1003  $ Universe for Lattice Al
      fill = 0:0 0:0 0:99
      1004 1004 1004 1004 1004 1004 1004 1004 1004 1004
      1004 1004 1004 1004 1004 1004 1004 1004 1004 1004
      1004 1004 1004 1004 1004 1004 1004 1004 1004 1004
      1004 1004 1004 1004 1004 1004 1004 1004 1004 1004
      1004 1004 1004 1004 1004 1004 1004 1004 1004 1004
      1004 1004 1004 1004 1004 1004 1004 1004 1004 1004
      1004 1004 1004 1004 1004 1004 1004 1004 1004 1004
      1004 1004 1004 1004 1004 1004 1004 1004 1004 1004
      1004 1004 1004 1004 1004 1004 1004 1004 1004 1004
      1004 1004 1004 1004 1004 1004 1004 1004 1004 1004

2004  2  -2.70 -999 u=1004 $ Universe filled with Al in whole ridge filter area
