1001 3 -11.34 1001 -2001 3000 -3001 4001 -4002 u=1 
1002 3 -11.34 1002 -2002 3000 -3001 4001 -4002 u=1 
1003 3 -11.34 1003 -2003 3001 -3002 4001 -4002 u=1 
1004 3 -11.34 1004 -2004 3001 -3002 4001 -4002 u=1 
1005 3 -11.34 1005 -2005 3002 -3003 4001 -4002 u=1 
1006 3 -11.34 1006 -2006 3002 -3003 4001 -4002 u=1 
1007 3 -11.34 1007 -2007 3003 -3004 4001 -4002 u=1 
1008 3 -11.34 1008 -2008 3003 -3004 4001 -4002 u=1 
1009 3 -11.34 1009 -2009 3004 -3005 4001 -4002 u=1 
1010 3 -11.34 1010 -2010 3004 -3005 4001 -4002 u=1 
1011 3 -11.34 1011 -2011 3005 -3006 4001 -4002 u=1 
1012 3 -11.34 1012 -2012 3005 -3006 4001 -4002 u=1 
1013 3 -11.34 1013 -2013 3006 -3007 4001 -4002 u=1 
1014 3 -11.34 1014 -2014 3006 -3007 4001 -4002 u=1 
1015 3 -11.34 1015 -2015 3007 -3008 4001 -4002 u=1 
1016 3 -11.34 1016 -2016 3007 -3008 4001 -4002 u=1 
1017 3 -11.34 1017 -2017 3008 -3009 4001 -4002 u=1 
1018 3 -11.34 1018 -2018 3008 -3009 4001 -4002 u=1 
1019 3 -11.34 1019 -2019 3009 -3010 4001 -4002 u=1 
1020 3 -11.34 1020 -2020 3009 -3010 4001 -4002 u=1 
1021 3 -11.34 1021 -2021 3010 -3011 4001 -4002 u=1 
1022 3 -11.34 1022 -2022 3010 -3011 4001 -4002 u=1 
1023 3 -11.34 1023 -2023 3011 -3012 4001 -4002 u=1 
1024 3 -11.34 1024 -2024 3011 -3012 4001 -4002 u=1 
1025 3 -11.34 1025 -2025 3012 -3013 4001 -4002 u=1 
1026 3 -11.34 1026 -2026 3012 -3013 4001 -4002 u=1 
1027 3 -11.34 1027 -2027 3013 -3014 4001 -4002 u=1 
1028 3 -11.34 1028 -2028 3013 -3014 4001 -4002 u=1 
1029 3 -11.34 1029 -2029 3014 -3015 4001 -4002 u=1 
1030 3 -11.34 1030 -2030 3014 -3015 4001 -4002 u=1 
1031 3 -11.34 1031 -2031 3015 -3016 4001 -4002 u=1 
1032 3 -11.34 1032 -2032 3015 -3016 4001 -4002 u=1 
1033 3 -11.34 1033 -2033 3016 -3017 4001 -4002 u=1 
1034 3 -11.34 1034 -2034 3016 -3017 4001 -4002 u=1 
1035 3 -11.34 1035 -2035 3017 -3018 4001 -4002 u=1 
1036 3 -11.34 1036 -2036 3017 -3018 4001 -4002 u=1 
1037 3 -11.34 1037 -2037 3018 -3019 4001 -4002 u=1 
1038 3 -11.34 1038 -2038 3018 -3019 4001 -4002 u=1 
1039 3 -11.34 1039 -2039 3019 -3020 4001 -4002 u=1 
1040 3 -11.34 1040 -2040 3019 -3020 4001 -4002 u=1 
1041 3 -11.34 1041 -2041 3020 -3021 4001 -4002 u=1 
1042 3 -11.34 1042 -2042 3020 -3021 4001 -4002 u=1 
1043 3 -11.34 1043 -2043 3021 -3022 4001 -4002 u=1 
1044 3 -11.34 1044 -2044 3021 -3022 4001 -4002 u=1 
1045 3 -11.34 1045 -2045 3022 -3023 4001 -4002 u=1 
1046 3 -11.34 1046 -2046 3022 -3023 4001 -4002 u=1 
1047 3 -11.34 1047 -2047 3023 -3024 4001 -4002 u=1 
1048 3 -11.34 1048 -2048 3023 -3024 4001 -4002 u=1 
1049 3 -11.34 1049 -2049 3024 -3025 4001 -4002 u=1 
1050 3 -11.34 1050 -2050 3024 -3025 4001 -4002 u=1 
1051 3 -11.34 1051 -2051 3025 -3026 4001 -4002 u=1 
1052 3 -11.34 1052 -2052 3025 -3026 4001 -4002 u=1 
1053 3 -11.34 1053 -2053 3026 -3027 4001 -4002 u=1 
1054 3 -11.34 1054 -2054 3026 -3027 4001 -4002 u=1 
1055 3 -11.34 1055 -2055 3027 -3028 4001 -4002 u=1 
1056 3 -11.34 1056 -2056 3027 -3028 4001 -4002 u=1 
1057 3 -11.34 1057 -2057 3028 -3029 4001 -4002 u=1 
1058 3 -11.34 1058 -2058 3028 -3029 4001 -4002 u=1 
1059 3 -11.34 1059 -2059 3029 -3030 4001 -4002 u=1 
1060 3 -11.34 1060 -2060 3029 -3030 4001 -4002 u=1 
1061 3 -11.34 1061 -2061 3030 -3031 4001 -4002 u=1 
1062 3 -11.34 1062 -2062 3030 -3031 4001 -4002 u=1 
1063 3 -11.34 1063 -2063 3031 -3032 4001 -4002 u=1 
1064 3 -11.34 1064 -2064 3031 -3032 4001 -4002 u=1 
1065 3 -11.34 1065 -2065 3032 -3033 4001 -4002 u=1 
1066 3 -11.34 1066 -2066 3032 -3033 4001 -4002 u=1 
1067 3 -11.34 1067 -2067 3033 -3034 4001 -4002 u=1 
1068 3 -11.34 1068 -2068 3033 -3034 4001 -4002 u=1 
1069 3 -11.34 1069 -2069 3034 -3035 4001 -4002 u=1 
1070 3 -11.34 1070 -2070 3034 -3035 4001 -4002 u=1 
1071 3 -11.34 1071 -2071 3035 -3036 4001 -4002 u=1 
1072 3 -11.34 1072 -2072 3035 -3036 4001 -4002 u=1 
1073 3 -11.34 1073 -2073 3036 -3037 4001 -4002 u=1 
1074 3 -11.34 1074 -2074 3036 -3037 4001 -4002 u=1 
1075 3 -11.34 1075 -2075 3037 -3038 4001 -4002 u=1 
1076 3 -11.34 1076 -2076 3037 -3038 4001 -4002 u=1 
1077 3 -11.34 1077 -2077 3038 -3039 4001 -4002 u=1 
1078 3 -11.34 1078 -2078 3038 -3039 4001 -4002 u=1 
1079 3 -11.34 1079 -2079 3039 -3040 4001 -4002 u=1 
1080 3 -11.34 1080 -2080 3039 -3040 4001 -4002 u=1 
1081 3 -11.34 1081 -2081 3040 -3041 4001 -4002 u=1 
1082 3 -11.34 1082 -2082 3040 -3041 4001 -4002 u=1 
1083 3 -11.34 1083 -2083 3041 -3042 4001 -4002 u=1 
1084 3 -11.34 1084 -2084 3041 -3042 4001 -4002 u=1 
1085 3 -11.34 1085 -2085 3042 -3043 4001 -4002 u=1 
1086 3 -11.34 1086 -2086 3042 -3043 4001 -4002 u=1 
1087 3 -11.34 1087 -2087 3043 -3044 4001 -4002 u=1 
1088 3 -11.34 1088 -2088 3043 -3044 4001 -4002 u=1 
1089 3 -11.34 1089 -2089 3044 -3045 4001 -4002 u=1 
1090 3 -11.34 1090 -2090 3044 -3045 4001 -4002 u=1 
1091 3 -11.34 1091 -2091 3045 -3046 4001 -4002 u=1 
1092 3 -11.34 1092 -2092 3045 -3046 4001 -4002 u=1 
1093 3 -11.34 1093 -2093 3046 -3047 4001 -4002 u=1 
1094 3 -11.34 1094 -2094 3046 -3047 4001 -4002 u=1 
1095 3 -11.34 1095 -2095 3047 -3048 4001 -4002 u=1 
1096 3 -11.34 1096 -2096 3047 -3048 4001 -4002 u=1 
1097 3 -11.34 1097 -2097 3048 -3049 4001 -4002 u=1 
1098 3 -11.34 1098 -2098 3048 -3049 4001 -4002 u=1 
1099 3 -11.34 1099 -2099 3049 -3050 4001 -4002 u=1 
1100 3 -11.34 1100 -2100 3049 -3050 4001 -4002 u=1 
1101 3 -11.34 1101 -2101 3050 -3051 4001 -4002 u=1 
1102 3 -11.34 1102 -2102 3050 -3051 4001 -4002 u=1 
1103 3 -11.34 1103 -2103 3051 -3052 4001 -4002 u=1 
1104 3 -11.34 1104 -2104 3051 -3052 4001 -4002 u=1 
1105 3 -11.34 1105 -2105 3052 -3053 4001 -4002 u=1 
1106 3 -11.34 1106 -2106 3052 -3053 4001 -4002 u=1 
1107 3 -11.34 1107 -2107 3053 -3054 4001 -4002 u=1 
1108 3 -11.34 1108 -2108 3053 -3054 4001 -4002 u=1 
1109 3 -11.34 1109 -2109 3054 -3055 4001 -4002 u=1 
1110 3 -11.34 1110 -2110 3054 -3055 4001 -4002 u=1 
1111 3 -11.34 1111 -2111 3055 -3056 4001 -4002 u=1 
1112 3 -11.34 1112 -2112 3055 -3056 4001 -4002 u=1 
1113 3 -11.34 1113 -2113 3056 -3057 4001 -4002 u=1 
1114 3 -11.34 1114 -2114 3056 -3057 4001 -4002 u=1 
1115 3 -11.34 1115 -2115 3057 -3058 4001 -4002 u=1 
1116 3 -11.34 1116 -2116 3057 -3058 4001 -4002 u=1 
1117 3 -11.34 1117 -2117 3058 -3059 4001 -4002 u=1 
1118 3 -11.34 1118 -2118 3058 -3059 4001 -4002 u=1 
1119 3 -11.34 1119 -2119 3059 -3060 4001 -4002 u=1 
1120 3 -11.34 1120 -2120 3059 -3060 4001 -4002 u=1 
