sumtally start 
isumtally = 2 
sfile = result.out 
sumfactor = 1.0 
nfile = 176 
output/deposit_target-1.out  0.00174-0.00000 
output/deposit_target-2.out  0.00584-0.00174 
output/deposit_target-3.out  0.00973-0.00584 
output/deposit_target-4.out  0.01363-0.00973 
output/deposit_target-5.out  0.01760-0.01363 
output/deposit_target-6.out  0.02175-0.01760 
output/deposit_target-7.out  0.02606-0.02175 
output/deposit_target-8.out  0.03055-0.02606 
output/deposit_target-9.out  0.03514-0.03055 
output/deposit_target-10.out  0.03978-0.03514 
output/deposit_target-11.out  0.04447-0.03978 
output/deposit_target-12.out  0.04921-0.04447 
output/deposit_target-13.out  0.05400-0.04921 
output/deposit_target-14.out  0.05884-0.05400 
output/deposit_target-15.out  0.06373-0.05884 
output/deposit_target-16.out  0.06867-0.06373 
output/deposit_target-17.out  0.07363-0.06867 
output/deposit_target-18.out  0.07860-0.07363 
output/deposit_target-19.out  0.08358-0.07860 
output/deposit_target-20.out  0.08856-0.08358 
output/deposit_target-21.out  0.09355-0.08856 
output/deposit_target-22.out  0.09854-0.09355 
output/deposit_target-23.out  0.10354-0.09854 
output/deposit_target-24.out  0.10855-0.10354 
output/deposit_target-25.out  0.11360-0.10855 
output/deposit_target-26.out  0.11874-0.11360 
output/deposit_target-27.out  0.12397-0.11874 
output/deposit_target-28.out  0.12928-0.12397 
output/deposit_target-29.out  0.13467-0.12928 
output/deposit_target-30.out  0.14012-0.13467 
output/deposit_target-31.out  0.14563-0.14012 
output/deposit_target-32.out  0.15122-0.14563 
output/deposit_target-33.out  0.15688-0.15122 
output/deposit_target-34.out  0.16263-0.15688 
output/deposit_target-35.out  0.16849-0.16263 
output/deposit_target-36.out  0.17444-0.16849 
output/deposit_target-37.out  0.18048-0.17444 
output/deposit_target-38.out  0.18659-0.18048 
output/deposit_target-39.out  0.19278-0.18659 
output/deposit_target-40.out  0.19904-0.19278 
output/deposit_target-41.out  0.20533-0.19904 
output/deposit_target-42.out  0.21160-0.20533 
output/deposit_target-43.out  0.21785-0.21160 
output/deposit_target-44.out  0.22408-0.21785 
output/deposit_target-45.out  0.23028-0.22408 
output/deposit_target-46.out  0.23647-0.23028 
output/deposit_target-47.out  0.24263-0.23647 
output/deposit_target-48.out  0.24878-0.24263 
output/deposit_target-49.out  0.25486-0.24878 
output/deposit_target-50.out  0.26086-0.25486 
output/deposit_target-51.out  0.26677-0.26086 
output/deposit_target-52.out  0.27259-0.26677 
output/deposit_target-53.out  0.27832-0.27259 
output/deposit_target-54.out  0.28396-0.27832 
output/deposit_target-55.out  0.28952-0.28396 
output/deposit_target-56.out  0.29498-0.28952 
output/deposit_target-57.out  0.30037-0.29498 
output/deposit_target-58.out  0.30569-0.30037 
output/deposit_target-59.out  0.31095-0.30569 
output/deposit_target-60.out  0.31616-0.31095 
output/deposit_target-61.out  0.32129-0.31616 
output/deposit_target-62.out  0.32637-0.32129 
output/deposit_target-63.out  0.33138-0.32637 
output/deposit_target-64.out  0.33634-0.33138 
output/deposit_target-65.out  0.34128-0.33634 
output/deposit_target-66.out  0.34625-0.34128 
output/deposit_target-67.out  0.35127-0.34625 
output/deposit_target-68.out  0.35632-0.35127 
output/deposit_target-69.out  0.36140-0.35632 
output/deposit_target-70.out  0.36653-0.36140 
output/deposit_target-71.out  0.37169-0.36653 
output/deposit_target-72.out  0.37688-0.37169 
output/deposit_target-73.out  0.38214-0.37688 
output/deposit_target-74.out  0.38748-0.38214 
output/deposit_target-75.out  0.39290-0.38748 
output/deposit_target-76.out  0.39840-0.39290 
output/deposit_target-77.out  0.40398-0.39840 
output/deposit_target-78.out  0.40964-0.40398 
output/deposit_target-79.out  0.41538-0.40964 
output/deposit_target-80.out  0.42121-0.41538 
output/deposit_target-81.out  0.42703-0.42121 
output/deposit_target-82.out  0.43279-0.42703 
output/deposit_target-83.out  0.43847-0.43279 
output/deposit_target-84.out  0.44408-0.43847 
output/deposit_target-85.out  0.44964-0.44408 
output/deposit_target-86.out  0.45517-0.44964 
output/deposit_target-87.out  0.46067-0.45517 
output/deposit_target-88.out  0.46615-0.46067 
output/deposit_target-89.out  0.47169-0.46615 
output/deposit_target-90.out  0.47740-0.47169 
output/deposit_target-91.out  0.48329-0.47740 
output/deposit_target-92.out  0.48934-0.48329 
output/deposit_target-93.out  0.49546-0.48934 
output/deposit_target-94.out  0.50157-0.49546 
output/deposit_target-95.out  0.50767-0.50157 
output/deposit_target-96.out  0.51375-0.50767 
output/deposit_target-97.out  0.51982-0.51375 
output/deposit_target-98.out  0.52586-0.51982 
output/deposit_target-99.out  0.53187-0.52586 
output/deposit_target-100.out  0.53785-0.53187 
output/deposit_target-101.out  0.54381-0.53785 
output/deposit_target-102.out  0.54975-0.54381 
output/deposit_target-103.out  0.55565-0.54975 
output/deposit_target-104.out  0.56154-0.55565 
output/deposit_target-105.out  0.56740-0.56154 
output/deposit_target-106.out  0.57327-0.56740 
output/deposit_target-107.out  0.57914-0.57327 
output/deposit_target-108.out  0.58501-0.57914 
output/deposit_target-109.out  0.59088-0.58501 
output/deposit_target-110.out  0.59675-0.59088 
output/deposit_target-111.out  0.60261-0.59675 
output/deposit_target-112.out  0.60848-0.60261 
output/deposit_target-113.out  0.61435-0.60848 
output/deposit_target-114.out  0.62021-0.61435 
output/deposit_target-115.out  0.62607-0.62021 
output/deposit_target-116.out  0.63192-0.62607 
output/deposit_target-117.out  0.63777-0.63192 
output/deposit_target-118.out  0.64362-0.63777 
output/deposit_target-119.out  0.64946-0.64362 
output/deposit_target-120.out  0.65530-0.64946 
output/deposit_target-121.out  0.66114-0.65530 
output/deposit_target-122.out  0.66699-0.66114 
output/deposit_target-123.out  0.67284-0.66699 
output/deposit_target-124.out  0.67870-0.67284 
output/deposit_target-125.out  0.68457-0.67870 
output/deposit_target-126.out  0.69045-0.68457 
output/deposit_target-127.out  0.69633-0.69045 
output/deposit_target-128.out  0.70221-0.69633 
output/deposit_target-129.out  0.70814-0.70221 
output/deposit_target-130.out  0.71413-0.70814 
output/deposit_target-131.out  0.72020-0.71413 
output/deposit_target-132.out  0.72633-0.72020 
output/deposit_target-133.out  0.73256-0.72633 
output/deposit_target-134.out  0.73892-0.73256 
output/deposit_target-135.out  0.74540-0.73892 
output/deposit_target-136.out  0.75200-0.74540 
output/deposit_target-137.out  0.75861-0.75200 
output/deposit_target-138.out  0.76510-0.75861 
output/deposit_target-139.out  0.77148-0.76510 
output/deposit_target-140.out  0.77775-0.77148 
output/deposit_target-141.out  0.78392-0.77775 
output/deposit_target-142.out  0.79003-0.78392 
output/deposit_target-143.out  0.79609-0.79003 
output/deposit_target-144.out  0.80208-0.79609 
output/deposit_target-145.out  0.80805-0.80208 
output/deposit_target-146.out  0.81403-0.80805 
output/deposit_target-147.out  0.82002-0.81403 
output/deposit_target-148.out  0.82601-0.82002 
output/deposit_target-149.out  0.83202-0.82601 
output/deposit_target-150.out  0.83804-0.83202 
output/deposit_target-151.out  0.84406-0.83804 
output/deposit_target-152.out  0.85010-0.84406 
output/deposit_target-153.out  0.85615-0.85010 
output/deposit_target-154.out  0.86220-0.85615 
output/deposit_target-155.out  0.86827-0.86220 
output/deposit_target-156.out  0.87434-0.86827 
output/deposit_target-157.out  0.88043-0.87434 
output/deposit_target-158.out  0.88652-0.88043 
output/deposit_target-159.out  0.89263-0.88652 
output/deposit_target-160.out  0.89874-0.89263 
output/deposit_target-161.out  0.90490-0.89874 
output/deposit_target-162.out  0.91114-0.90490 
output/deposit_target-163.out  0.91747-0.91114 
output/deposit_target-164.out  0.92387-0.91747 
output/deposit_target-165.out  0.93032-0.92387 
output/deposit_target-166.out  0.93679-0.93032 
output/deposit_target-167.out  0.94327-0.93679 
output/deposit_target-168.out  0.94976-0.94327 
output/deposit_target-169.out  0.95629-0.94976 
output/deposit_target-170.out  0.96289-0.95629 
output/deposit_target-171.out  0.96956-0.96289 
output/deposit_target-172.out  0.97630-0.96956 
output/deposit_target-173.out  0.98307-0.97630 
output/deposit_target-174.out  0.98984-0.98307 
output/deposit_target-175.out  0.99661-0.98984 
output/deposit_target-176.out  1.00000-0.99661 
sumtally end 
